n = 100;
C = 542;
w = [865,517,451,740,744,18,850,478,145,71,601,785,163,775,603,243,282,932,549,311,902,226,266,93,802,346,925,894,630,216,114,185,253,381,541,817,743,501,385,941,920,714,875,718,456,1000,453,596,609,199,84,442,596,268,377,845,516,256,715,913,1000,984,12,388,14,979,888,81,619,583,89,574,132,844,766,774,224,815,631,416,963,801,810,734,269,685,657,767,449,837,722,774,151,398,134,104,786,72,922,578];
p = [886,515,360,706,776,37,751,519,195,142,550,749,238,795,573,296,196,891,591,338,846,316,290,159,707,391,872,864,724,304,26,265,290,352,481,901,830,491,388,974,1001,716,903,798,515,998,439,514,597,153,136,411,601,228,470,868,509,182,697,928,1084,989,83,442,15,904,898,44,596,486,25,537,223,941,783,748,175,741,536,368,941,828,775,719,322,600,683,724,414,865,785,843,60,470,108,60,809,108,913,613];
